&control
    calculation = 'scf'
    restart_mode = 'from_scratch'
    prefix = 'Disilane'
    tprnfor = .true.
    pseudo_dir = '/home/ciga/builds/pseudo_potentials'
/

&system
    ibrav = 0
    nat = 8
    ntyp = 2
    ecutwfc = 80
    nbnd = 10
/

&electrons
    diagonalization = 'david'
    mixing_beta = 0.5
    conv_thr = 1e-12
/

CELL_PARAMETERS
20.00   0.00    0.00
0.00    20.00   0.00
0.00    0.00    20.00

ATOMIC_SPECIES
Si	28.0855	Si.upf
H	1.00794	H.upf

ATOMIC_POSITIONS (angstrom)
Si	0.0	0.0	-1.1655
Si	0.0	0.0	1.1655
H	1.39933	0.0	1.683128
H	-1.39933	0.0	-1.683128
H	0.6995	1.2116	-1.683128
H	0.6995	-1.2116	-1.683128
H	-0.6995	-1.2116	1.683128
H	-0.6995	1.2116	1.683128
