&control
    calculation = 'scf'
    restart_mode = 'from_scratch'
    prefix = 'Helium'
    tprnfor = .true.
    pseudo_dir = '/home/ciga/builds/pseudo_potentials'
/

&system
    ibrav = 0
    nat = 1
    ntyp = 1
    ecutwfc = 80
    nbnd = 10
/

&electrons
    diagonalization = 'david'
    mixing_beta = 0.5
    conv_thr = 1e-12
/

CELL_PARAMETERS
20.00   0.00    0.00
0.00    20.00   0.00
0.00    0.00    20.00

ATOMIC_SPECIES
He	4.002602	He.upf

ATOMIC_POSITIONS (angstrom)
He	0.0	0.0	0.0
