&control
    calculation = 'scf'
    restart_mode = 'from_scratch'
    prefix = 'Vynil bromide'
    tprnfor = .true.
    pseudo_dir = '/home/ciga/builds/pseudo_potentials'
/

&system
    ibrav = 0
    nat = 6
    ntyp = 3
    ecutwfc = 80
    nbnd = 10
/

&electrons
    diagonalization = 'david'
    mixing_beta = 0.5
    conv_thr = 1e-12
/

CELL_PARAMETERS
20.00   0.00    0.00
0.00    20.00   0.00
0.00    0.00    20.00

ATOMIC_SPECIES
C	12.0107	C.upf
H	1.00794	H.upf
Br	79.904	Br.upf

ATOMIC_POSITIONS (angstrom)
C	0.0	0.0	0.0
C	0.0	0.0	1.3256
H	-0.895976	0.0	-0.602298
H	-0.894897	0.0	1.927173
H	0.908386	0.0	-0.581003
Br	1.357668	0.0	2.194533
