&control
    calculation = 'scf',
    restart_mode='from_scratch',
    prefix='ch4_80',
    tprnfor = .true.,
     pseudo_dir='/home/ciga/builds/pseudo_potentials'
 /
 &system
    ibrav=  0,
    nat=5,
    ntyp= 2,
    ecutwfc =80,
 /
 &electrons
    diagonalization='david'
    mixing_beta = 0.5,
    conv_thr =  1.0d-12
 /
CELL_PARAMETERS
20.00   0.00   0.00
 0.00  20.00   0.00
 0.00   0.00  20.00
ATOMIC_SPECIES
 H  1.0   H.upf
 C  12.0  C.upf
ATOMIC_POSITIONS (angstrom)
C  10.0000  10.0000  10.0000
H  10.6276 9.3724  10.6276
H 9.3724  10.6276  10.6276    
H 9.3724 9.3724 9.3724
H  10.6276  10.6276 9.3724
