&control
    calculation = 'scf'
    restart_mode = 'from_scratch'
    prefix = 'Acetaldehyde'
    tprnfor = .true.
    pseudo_dir = '/home/ciga/builds/pseudo_potentials'
/

&system
    ibrav = 0
    nat = 7
    ntyp = 3
    ecutwfc = 60
/

&electrons
    diagonalization = 'david'
    mixing_beta = 0.5
    conv_thr = 1e-12
/

CELL_PARAMETERS
20.00   0.00    0.00
0.00    20.00   0.00
0.00    0.00    20.00

ATOMIC_SPECIES
C	12.0107	C.upf
O	15.9994	O.upf
H	1.00794	H.upf

ATOMIC_POSITIONS (angstrom)
C	0.0	0.0	0.0
C	0.0	0.0	1.515
O	1.001953	0.0	2.193373
H	-1.019805	0.0	1.99706
H	-0.9057	-0.5229	-0.363
H	0.0	1.0458	-0.363
H	0.9057	-0.5229	-0.363
