&control
    calculation = 'scf'
    restart_mode = 'from_scratch'
    prefix = 'Adenine'
    tprnfor = .true.
    pseudo_dir = '/home/ciga/builds/pseudo_potentials'
/

&system
    ibrav = 0
    nat = 15
    ntyp = 3
    ecutwfc = 65
/

&electrons
    diagonalization = 'david'
    mixing_beta = 0.5
    conv_thr = 1e-12
/

CELL_PARAMETERS
20.00   0.00    0.00
0.00    20.00   0.00
0.00    0.00    20.00

ATOMIC_SPECIES
C	12.0107	C.upf
N	14.0067	N.upf
H	1.00794	H.upf

ATOMIC_POSITIONS (angstrom)
C	-0.784345	0.002466	0.6854944
C	0.5301823	0.0009168	0.1951947
N	-1.9138024	0.0022584	-0.033473
C	-1.6479109	-0.001933	-1.3472026
H	-2.5169904	-0.0044917	-2.0095241
N	-0.4540095	-0.005121	-1.9657824
C	0.6617763	-0.0009654	-1.2107858
N	1.8686255	0.0181736	-1.8266445
H	2.7131398	-0.0801668	-1.2801876
H	1.9011412	-0.0813319	-2.8324875
N	1.4556976	-0.0028403	1.2254693
H	1.1016503	-0.0046108	3.3314279
C	0.7173645	-0.0023279	2.3155892
N	-0.6380338	0.0012265	2.0572467
H	-1.3931273	0.0022322	2.7328517
