&control
    calculation = 'scf'
    restart_mode = 'from_scratch'
    prefix = 'Aluminum_trifluoride'
    tprnfor = .true.
    pseudo_dir = '/home/ciga/builds/pseudo_potentials'
/

&system
    ibrav = 0
    nat = 4
    ntyp = 2
    ecutwfc = 95
/

&electrons
    diagonalization = 'david'
    mixing_beta = 0.5
    conv_thr = 1e-12
/

CELL_PARAMETERS
20.00   0.00    0.00
0.00    20.00   0.00
0.00    0.00    20.00

ATOMIC_SPECIES
Al	26.9815386	Al.upf
F	18.9984032	F.upf

ATOMIC_POSITIONS (angstrom)
Al	0.0	0.0	0.0
F	0.0	0.0	1.633
F	0.0	1.4142	-0.8165
F	0.0	-1.4142	-0.8165
