&control
    calculation = 'scf'
    restart_mode = 'from_scratch'
    prefix = 'Argon'
    tprnfor = .true.
    pseudo_dir = '/home/ciga/builds/pseudo_potentials'
/

&system
    ibrav = 0
    nat = 1
    ntyp = 1
    ecutwfc = 55
/

&electrons
    diagonalization = 'david'
    mixing_beta = 0.5
    conv_thr = 1e-12
/

CELL_PARAMETERS
20.00   0.00    0.00
0.00    20.00   0.00
0.00    0.00    20.00

ATOMIC_SPECIES
Ar	39.948	Ar.upf

ATOMIC_POSITIONS (angstrom)
Ar	0.0	0.0	0.0
