&control
    calculation = 'scf'
    restart_mode = 'from_scratch'
    prefix = 'Arsine'
    tprnfor = .true.
    pseudo_dir = '/home/ciga/builds/pseudo_potentials'
/

&system
    ibrav = 0
    nat = 4
    ntyp = 2
    ecutwfc = 65
/

&electrons
    diagonalization = 'david'
    mixing_beta = 0.5
    conv_thr = 1e-12
/

CELL_PARAMETERS
20.00   0.00    0.00
0.00    20.00   0.00
0.00    0.00    20.00

ATOMIC_SPECIES
As	74.9216	As.upf
H	1.00794	H.upf

ATOMIC_POSITIONS (angstrom)
As	0.0	0.0	0.0
H	0.0	1.2561	0.8398
H	1.0878	-0.6281	0.8398
H	-1.0878	-0.6281	0.8398
