&control
    calculation = 'scf'
    restart_mode = 'from_scratch'
    prefix = 'Borane'
    tprnfor = .true.
    pseudo_dir = '/home/ciga/builds/pseudo_potentials'
/

&system
    ibrav = 0
    nat = 4
    ntyp = 2
    ecutwfc = 65
/

&electrons
    diagonalization = 'david'
    mixing_beta = 0.5
    conv_thr = 1e-12
/

CELL_PARAMETERS
20.00   0.00    0.00
0.00    20.00   0.00
0.00    0.00    20.00

ATOMIC_SPECIES
B	10.811	B.upf
H	1.00794	H.upf

ATOMIC_POSITIONS (angstrom)
B	0.0	0.0	0.0
H	0.0	0.0	1.19
H	0.0	1.0306	-0.595
H	0.0	-1.0306	-0.595
