&control
    calculation = 'scf'
    restart_mode = 'from_scratch'
    prefix = 'Boron_nitride'
    tprnfor = .true.
    pseudo_dir = '/home/ciga/builds/pseudo_potentials'
/

&system
    ibrav = 0
    nat = 2
    ntyp = 2
    ecutwfc = 70
/

&electrons
    diagonalization = 'david'
    mixing_beta = 0.5
    conv_thr = 1e-12
/

CELL_PARAMETERS
20.00   0.00    0.00
0.00    20.00   0.00
0.00    0.00    20.00

ATOMIC_SPECIES
B	10.811	B.upf
N	14.0067	N.upf

ATOMIC_POSITIONS (angstrom)
B	0.0	0.0	0.0
N	0.0	0.0	1.281
