&control
    calculation = 'scf'
    restart_mode = 'from_scratch'
    prefix = 'Bromine'
    tprnfor = .true.
    pseudo_dir = '/home/ciga/builds/pseudo_potentials'
/

&system
    ibrav = 0
    nat = 2
    ntyp = 1
    ecutwfc = 45
/

&electrons
    diagonalization = 'david'
    mixing_beta = 0.5
    conv_thr = 1e-12
/

CELL_PARAMETERS
20.00   0.00    0.00
0.00    20.00   0.00
0.00    0.00    20.00

ATOMIC_SPECIES
Br	79.904	Br.upf

ATOMIC_POSITIONS (angstrom)
Br	0.0	0.0	0.0
Br	0.0	0.0	2.2811
