&control
    calculation = 'scf'
    restart_mode = 'from_scratch'
    prefix = 'Carbon_disulfide'
    tprnfor = .true.
    pseudo_dir = '/home/ciga/builds/pseudo_potentials'
/

&system
    ibrav = 0
    nat = 3
    ntyp = 2
    ecutwfc = 40
/

&electrons
    diagonalization = 'david'
    mixing_beta = 0.5
    conv_thr = 1e-12
/

CELL_PARAMETERS
20.00   0.00    0.00
0.00    20.00   0.00
0.00    0.00    20.00

ATOMIC_SPECIES
C	12.0107	C.upf
S	32.065	S.upf

ATOMIC_POSITIONS (angstrom)
C	0.0	0.0	0.0
S	0.0	0.0	1.5526
S	0.0	0.0	-1.5526
