&control
    calculation = 'scf'
    restart_mode = 'from_scratch'
    prefix = 'Chlorine'
    tprnfor = .true.
    pseudo_dir = '/home/ciga/builds/pseudo_potentials'
/

&system
    ibrav = 0
    nat = 2
    ntyp = 1
    ecutwfc = 50
/

&electrons
    diagonalization = 'david'
    mixing_beta = 0.5
    conv_thr = 1e-12
/

CELL_PARAMETERS
20.00   0.00    0.00
0.00    20.00   0.00
0.00    0.00    20.00

ATOMIC_SPECIES
Cl	35.453	Cl.upf

ATOMIC_POSITIONS (angstrom)
Cl	0.0	0.0	0.0
Cl	0.0	0.0	1.9878
