&control
    calculation = 'scf'
    restart_mode = 'from_scratch'
    prefix = 'Cyclooctatetraene'
    tprnfor = .true.
    pseudo_dir = '/home/ciga/builds/pseudo_potentials'
/

&system
    ibrav = 0
    nat = 16
    ntyp = 2
    ecutwfc = 80
/

&electrons
    diagonalization = 'david'
    mixing_beta = 0.5
    conv_thr = 1e-12
/

CELL_PARAMETERS
20.00   0.00    0.00
0.00    20.00   0.00
0.00    0.00    20.00

ATOMIC_SPECIES
C	12.0107	C.upf
H	1.00794	H.upf

ATOMIC_POSITIONS (angstrom)
C	-0.2627	-1.6663	0.3833
C	1.0331	-1.3409	0.3827
C	-1.0297	1.3407	0.3845
C	0.263	1.6666	0.3835
C	-1.3424	-1.0272	-0.3796
C	1.677	-0.2635	-0.3837
C	-1.6841	0.2615	-0.3911
C	1.3455	1.0312	-0.3823
H	-0.569	-2.5492	0.9659
H	1.7214	-1.972	0.9656
H	-1.7184	1.971	0.9702
H	0.5706	2.5481	0.9698
H	-1.9688	-1.7275	-0.9575
H	2.5603	-0.5678	-0.965
H	-2.5689	0.5611	-0.971
H	1.9751	1.7236	-0.9613
