&control
    calculation = 'scf'
    restart_mode = 'from_scratch'
    prefix = 'Cyclopentadiene'
    tprnfor = .true.
    pseudo_dir = '/home/ciga/builds/pseudo_potentials'
/

&system
    ibrav = 0
    nat = 11
    ntyp = 2
    ecutwfc = 40
/

&electrons
    diagonalization = 'david'
    mixing_beta = 0.5
    conv_thr = 1e-12
/

CELL_PARAMETERS
20.00   0.00    0.00
0.00    20.00   0.00
0.00    0.00    20.00

ATOMIC_SPECIES
C	12.0107	C.upf
H	1.00794	H.upf

ATOMIC_POSITIONS (angstrom)
C	0.735	0.0	0.0
C	-0.735	0.0	0.0
C	1.18076	0.0	1.265805
C	-1.18076	0.0	1.265805
C	-0.003091	0.0	2.209296
H	2.228506	0.0	1.566354
H	1.364644	0.0	-0.889746
H	-1.36496	0.0	-0.889523
H	-2.228838	0.0	1.565193
H	-0.001086	0.885447	2.844969
H	-0.005702	-0.882815	2.848618
