&control
    calculation = 'scf'
    restart_mode = 'from_scratch'
    prefix = 'Dipotassium'
    tprnfor = .true.
    pseudo_dir = '/home/ciga/builds/pseudo_potentials'
/

&system
    ibrav = 0
    nat = 2
    ntyp = 1
    ecutwfc = 95
/

&electrons
    diagonalization = 'david'
    mixing_beta = 0.5
    conv_thr = 1e-12
/

CELL_PARAMETERS
20.00   0.00    0.00
0.00    20.00   0.00
0.00    0.00    20.00

ATOMIC_SPECIES
K	39.0983	K.upf

ATOMIC_POSITIONS (angstrom)
K	0.0	0.0	0.0
K	0.0	0.0	3.9051
