&control
    calculation = 'scf'
    restart_mode = 'from_scratch'
    prefix = 'Dirubidium'
    tprnfor = .true.
    pseudo_dir = '/home/ciga/builds/pseudo_potentials'
/

&system
    ibrav = 0
    nat = 2
    ntyp = 1
    ecutwfc = 30
/

&electrons
    diagonalization = 'david'
    mixing_beta = 0.5
    conv_thr = 1e-12
/

CELL_PARAMETERS
20.00   0.00    0.00
0.00    20.00   0.00
0.00    0.00    20.00

ATOMIC_SPECIES
Rb	85.4678	Rb.upf

ATOMIC_POSITIONS (angstrom)
Rb	0.0	0.0	0.0
Rb	0.0	0.0	4.12256
