&control
    calculation = 'scf'
    restart_mode = 'from_scratch'
    prefix = 'Fluorine'
    tprnfor = .true.
    pseudo_dir = '/home/ciga/builds/pseudo_potentials'
/

&system
    ibrav = 0
    nat = 2
    ntyp = 1
    ecutwfc = 75
/

&electrons
    diagonalization = 'david'
    mixing_beta = 0.5
    conv_thr = 1e-12
/

CELL_PARAMETERS
20.00   0.00    0.00
0.00    20.00   0.00
0.00    0.00    20.00

ATOMIC_SPECIES
F	18.9984032	F.upf

ATOMIC_POSITIONS (angstrom)
F	0.0	0.0	0.0
F	0.0	0.0	1.4119
