&control
    calculation = 'scf'
    restart_mode = 'from_scratch'
    prefix = 'Formaldehyde'
    tprnfor = .true.
    pseudo_dir = '/home/ciga/builds/pseudo_potentials'
/

&system
    ibrav = 0
    nat = 4
    ntyp = 3
    ecutwfc = 65
/

&electrons
    diagonalization = 'david'
    mixing_beta = 0.5
    conv_thr = 1e-12
/

CELL_PARAMETERS
20.00   0.00    0.00
0.00    20.00   0.00
0.00    0.00    20.00

ATOMIC_SPECIES
C	12.0107	C.upf
O	15.9994	O.upf
H	1.00794	H.upf

ATOMIC_POSITIONS (angstrom)
C	0.0	0.0	0.0
O	0.0	0.0	1.208
H	0.949	0.0	-0.5873
H	-0.949	0.0	-0.5873
