&control
    calculation = 'scf'
    restart_mode = 'from_scratch'
    prefix = 'Guanine'
    tprnfor = .true.
    pseudo_dir = '/home/ciga/builds/pseudo_potentials'
/

&system
    ibrav = 0
    nat = 16
    ntyp = 4
    ecutwfc = 45
/

&electrons
    diagonalization = 'david'
    mixing_beta = 0.5
    conv_thr = 1e-12
/

CELL_PARAMETERS
20.00   0.00    0.00
0.00    20.00   0.00
0.00    0.00    20.00

ATOMIC_SPECIES
C	12.0107	C.upf
N	14.0067	N.upf
H	1.00794	H.upf
O	15.9994	O.upf

ATOMIC_POSITIONS (angstrom)
C	-0.8909136	0.0022495	0.4879726
C	0.4648657	0.0066008	0.8428894
N	-1.4589692	0.014918	-0.7432767
C	-0.5646417	0.0081792	-1.7097505
N	0.6167192	0.0012409	2.2159144
H	-0.8858269	-0.0099074	3.7340662
C	-0.6098052	-0.0051706	2.6839376
N	-1.5660059	-0.0044593	1.6825133
H	-2.5739287	-0.0104122	1.7887665
C	1.4519352	0.0039931	-0.2048012
O	2.6727207	-0.0060475	-0.1670731
N	0.7873252	0.0064149	-1.486471
H	1.4327355	-0.0565403	-2.270638
N	-0.9871915	-0.0557168	-3.0197562
H	-1.9795941	0.1251659	-3.1279347
H	-0.4045996	0.3813093	-3.724768
