&control
    calculation = 'scf'
    restart_mode = 'from_scratch'
    prefix = 'Hexafluorobenzene'
    tprnfor = .true.
    pseudo_dir = '/home/ciga/builds/pseudo_potentials'
/

&system
    ibrav = 0
    nat = 12
    ntyp = 2
    ecutwfc = 80
/

&electrons
    diagonalization = 'david'
    mixing_beta = 0.5
    conv_thr = 1e-12
/

CELL_PARAMETERS
20.00   0.00    0.00
0.00    20.00   0.00
0.00    0.00    20.00

ATOMIC_SPECIES
C	12.0107	C.upf
F	18.9984032	F.upf

ATOMIC_POSITIONS (angstrom)
C	-1.092692	-0.875775	0.0
C	0.212112	-1.384183	0.0
C	1.304703	-0.508408	0.0
C	1.092692	0.875775	0.0
C	-0.212112	1.384083	0.0
C	-1.304804	0.508308	0.0
F	-2.126549	-1.704487	0.0
F	0.412876	-2.693885	0.0
F	2.539354	-0.989305	0.0
F	2.126549	1.704487	0.0
F	-0.412858	2.693787	0.0
F	-2.539356	0.989457	0.0
