&control
    calculation = 'scf'
    restart_mode = 'from_scratch'
    prefix = 'Hydrogen_peroxide'
    tprnfor = .true.
    pseudo_dir = '/home/ciga/builds/pseudo_potentials'
/

&system
    ibrav = 0
    nat = 4
    ntyp = 2
    ecutwfc = 40
/

&electrons
    diagonalization = 'david'
    mixing_beta = 0.5
    conv_thr = 1e-12
/

CELL_PARAMETERS
20.00   0.00    0.00
0.00    20.00   0.00
0.00    0.00    20.00

ATOMIC_SPECIES
O	15.9994	O.upf
H	1.00794	H.upf

ATOMIC_POSITIONS (angstrom)
O	0.0	0.7375	-0.0528
O	0.0	-0.7375	-0.0528
H	0.819	0.817	0.422
H	-0.819	-0.817	0.422
