&control
    calculation = 'scf'
    restart_mode = 'from_scratch'
    prefix = 'Hydrogen_sulfide'
    tprnfor = .true.
    pseudo_dir = '/home/ciga/builds/pseudo_potentials'
/

&system
    ibrav = 0
    nat = 3
    ntyp = 2
    ecutwfc = 95
/

&electrons
    diagonalization = 'david'
    mixing_beta = 0.5
    conv_thr = 1e-12
/

CELL_PARAMETERS
20.00   0.00    0.00
0.00    20.00   0.00
0.00    0.00    20.00

ATOMIC_SPECIES
S	32.065	S.upf
H	1.00794	H.upf

ATOMIC_POSITIONS (angstrom)
S	0.0	0.0	0.0
H	0.9617	0.0	0.9268
H	-0.9617	0.0	0.9268
