&control
    calculation = 'scf'
    restart_mode = 'from_scratch'
    prefix = 'Krypton'
    tprnfor = .true.
    pseudo_dir = '/home/ciga/builds/pseudo_potentials'
/

&system
    ibrav = 0
    nat = 1
    ntyp = 1
    ecutwfc = 60
/

&electrons
    diagonalization = 'david'
    mixing_beta = 0.5
    conv_thr = 1e-12
/

CELL_PARAMETERS
20.00   0.00    0.00
0.00    20.00   0.00
0.00    0.00    20.00

ATOMIC_SPECIES
Kr	83.798	Kr.upf

ATOMIC_POSITIONS (angstrom)
Kr	0.0	0.0	0.0
