&control
    calculation = 'scf'
    restart_mode = 'from_scratch'
    prefix = 'Magnesium_chloride'
    tprnfor = .true.
    pseudo_dir = '/home/ciga/builds/pseudo_potentials'
/

&system
    ibrav = 0
    nat = 3
    ntyp = 2
    ecutwfc = 80
/

&electrons
    diagonalization = 'david'
    mixing_beta = 0.5
    conv_thr = 1e-12
/

CELL_PARAMETERS
20.00   0.00    0.00
0.00    20.00   0.00
0.00    0.00    20.00

ATOMIC_SPECIES
Mg	24.305	Mg.upf
Cl	35.453	Cl.upf

ATOMIC_POSITIONS (angstrom)
Mg	0.0	0.0	0.0
Cl	0.0	0.0	2.179
Cl	0.0	0.0	-2.179
