&control
    calculation = 'scf'
    restart_mode = 'from_scratch'
    prefix = 'Pentasilane'
    tprnfor = .true.
    pseudo_dir = '/home/ciga/builds/pseudo_potentials'
/

&system
    ibrav = 0
    nat = 17
    ntyp = 2
    ecutwfc = 60
/

&electrons
    diagonalization = 'david'
    mixing_beta = 0.5
    conv_thr = 1e-12
/

CELL_PARAMETERS
20.00   0.00    0.00
0.00    20.00   0.00
0.00    0.00    20.00

ATOMIC_SPECIES
Si	28.0855	Si.upf
H	1.00794	H.upf

ATOMIC_POSITIONS (angstrom)
Si	-0.0048335	-3.8969717	-0.5238439
H	1.1887767	-3.9134075	-1.4252499
H	0.0223993	-5.1288186	0.3252902
H	-1.23854	-3.9282984	-1.3688912
Si	0.0104464	-1.9536989	0.7969029
Si	-0.0004053	1.3e-05	-0.5100885
H	-1.1904082	-1.9457891	1.694399
H	1.2296666	-1.9529052	1.6693294
Si	-0.0104987	1.9536727	0.7969268
H	-1.2088685	-0.0034247	-1.3978287
H	1.2088478	0.0037073	-1.3964714
Si	0.005194	3.8969653	-0.5238481
H	-0.0191436	5.1288161	0.3253672
H	1.2377333	3.926251	-1.3707348
H	-1.1896928	3.9156075	-1.423461
H	1.1910193	1.9496877	1.6935745
H	-1.2290887	1.94912	1.670205
