&control
    calculation = 'scf'
    restart_mode = 'from_scratch'
    prefix = 'Phosphorus_dimer'
    tprnfor = .true.
    pseudo_dir = '/home/ciga/builds/pseudo_potentials'
/

&system
    ibrav = 0
    nat = 2
    ntyp = 1
    ecutwfc = 90
/

&electrons
    diagonalization = 'david'
    mixing_beta = 0.5
    conv_thr = 1e-12
/

CELL_PARAMETERS
20.00   0.00    0.00
0.00    20.00   0.00
0.00    0.00    20.00

ATOMIC_SPECIES
P	30.973762	P.upf

ATOMIC_POSITIONS (angstrom)
P	0.0	0.0	0.0
P	0.0	0.0	1.8931
