&control
    calculation = 'scf'
    restart_mode = 'from_scratch'
    prefix = 'Phosphine'
    tprnfor = .true.
    pseudo_dir = '/home/ciga/builds/pseudo_potentials'
/

&system
    ibrav = 0
    nat = 4
    ntyp = 2
    ecutwfc = 50
/

&electrons
    diagonalization = 'david'
    mixing_beta = 0.5
    conv_thr = 1e-12
/

CELL_PARAMETERS
20.00   0.00    0.00
0.00    20.00   0.00
0.00    0.00    20.00

ATOMIC_SPECIES
P	30.973762	P.upf
H	1.00794	H.upf

ATOMIC_POSITIONS (angstrom)
P	0.0	0.0	0.0
H	0.0	-1.1932	-0.7717
H	1.0333	0.5966	-0.7717
H	-1.0333	0.5966	-0.7717
