&control
    calculation = 'scf'
    restart_mode = 'from_scratch'
    prefix = 'Propane'
    tprnfor = .true.
    pseudo_dir = '/home/ciga/builds/pseudo_potentials'
/

&system
    ibrav = 0
    nat = 11
    ntyp = 2
    ecutwfc = 70
/

&electrons
    diagonalization = 'david'
    mixing_beta = 0.5
    conv_thr = 1e-12
/

CELL_PARAMETERS
20.00   0.00    0.00
0.00    20.00   0.00
0.00    0.00    20.00

ATOMIC_SPECIES
C	12.0107	C.upf
H	1.00794	H.upf

ATOMIC_POSITIONS (angstrom)
C	0.0	0.5863	-0.0
C	-1.2681	-0.2626	0.0
C	1.2681	-0.2626	-0.0
H	0.0	1.2449	0.876
H	-0.0003	1.2453	-0.8758
H	-2.1576	0.3742	0.0
H	2.1576	0.3743	0.0
H	-1.3271	-0.9014	0.88
H	-1.3271	-0.9014	-0.88
H	1.3271	-0.9014	-0.88
H	1.3272	-0.9014	0.88
