&control
    calculation = 'scf'
    restart_mode = 'from_scratch'
    prefix = 'Silane'
    tprnfor = .true.
    pseudo_dir = '/home/ciga/builds/pseudo_potentials'
/

&system
    ibrav = 0
    nat = 5
    ntyp = 2
    ecutwfc = 30
/

&electrons
    diagonalization = 'david'
    mixing_beta = 0.5
    conv_thr = 1e-12
/

CELL_PARAMETERS
20.00   0.00    0.00
0.00    20.00   0.00
0.00    0.00    20.00

ATOMIC_SPECIES
Si	28.0855	Si.upf
H	1.00794	H.upf

ATOMIC_POSITIONS (angstrom)
Si	0.0	0.0	0.0
H	0.8544	-0.8544	0.8544
H	-0.8544	0.8544	0.8544
H	-0.8544	-0.8544	-0.8544
H	0.8544	0.8544	-0.8544
