&control
    calculation = 'scf'
    restart_mode = 'from_scratch'
    prefix = 'Sodium_tetramer'
    tprnfor = .true.
    pseudo_dir = '/home/ciga/builds/pseudo_potentials'
/

&system
    ibrav = 0
    nat = 4
    ntyp = 1
    ecutwfc = 80
/

&electrons
    diagonalization = 'david'
    mixing_beta = 0.5
    conv_thr = 1e-12
/

CELL_PARAMETERS
20.00   0.00    0.00
0.00    20.00   0.00
0.00    0.00    20.00

ATOMIC_SPECIES
Na	22.98976928	Na.upf

ATOMIC_POSITIONS (angstrom)
Na	0.0002445	-0.0998053	1.5471126
Na	-0.0002444	3.1776586	0.0486374
Na	0.0002444	0.0997722	-1.547215
Na	-0.0002444	-3.1776254	-0.048535
