&control
    calculation = 'scf'
    restart_mode = 'from_scratch'
    prefix = 'Sodium_dimer'
    tprnfor = .true.
    pseudo_dir = '/home/ciga/builds/pseudo_potentials'
/

&system
    ibrav = 0
    nat = 2
    ntyp = 1
    ecutwfc = 70
/

&electrons
    diagonalization = 'david'
    mixing_beta = 0.5
    conv_thr = 1e-12
/

CELL_PARAMETERS
20.00   0.00    0.00
0.00    20.00   0.00
0.00    0.00    20.00

ATOMIC_SPECIES
Na	22.98976928	Na.upf

ATOMIC_POSITIONS (angstrom)
Na	0.0	0.0	0.0
Na	0.0	0.0	3.0789
