&control
    calculation = 'scf'
    restart_mode = 'from_scratch'
    prefix = 'Sodium_hexamer'
    tprnfor = .true.
    pseudo_dir = '/home/ciga/builds/pseudo_potentials'
/

&system
    ibrav = 0
    nat = 6
    ntyp = 1
    ecutwfc = 90
/

&electrons
    diagonalization = 'david'
    mixing_beta = 0.5
    conv_thr = 1e-12
/

CELL_PARAMETERS
20.00   0.00    0.00
0.00    20.00   0.00
0.00    0.00    20.00

ATOMIC_SPECIES
Na	22.98976928	Na.upf

ATOMIC_POSITIONS (angstrom)
Na	-2.4732949	-1.7969539	-0.2367313
Na	-2.4732949	1.7969539	-0.2367313
Na	0.9447146	-2.9075325	-0.2367313
Na	0.9447146	2.9075325	-0.2367313
Na	3.0571606	0.0	-0.2367313
Na	0.0	0.0	1.1836565
