&control
    calculation = 'scf'
    restart_mode = 'from_scratch'
    prefix = 'Sulfer_tetrafluoride'
    tprnfor = .true.
    pseudo_dir = '/home/ciga/builds/pseudo_potentials'
/

&system
    ibrav = 0
    nat = 5
    ntyp = 2
    ecutwfc = 70
/

&electrons
    diagonalization = 'david'
    mixing_beta = 0.5
    conv_thr = 1e-12
/

CELL_PARAMETERS
20.00   0.00    0.00
0.00    20.00   0.00
0.00    0.00    20.00

ATOMIC_SPECIES
S	32.065	S.upf
F	18.9984032	F.upf

ATOMIC_POSITIONS (angstrom)
S	0.0	0.0	0.3726
F	0.0	1.643	0.2731
F	0.0	-1.643	0.2731
F	1.1969	0.0	-0.6044
F	-1.1969	0.0	-0.6044
