&control
    calculation = 'scf'
    restart_mode = 'from_scratch'
    prefix = 'Sulfer_dioxide'
    tprnfor = .true.
    pseudo_dir = '/home/ciga/builds/pseudo_potentials'
/

&system
    ibrav = 0
    nat = 3
    ntyp = 2
    ecutwfc = 35
/

&electrons
    diagonalization = 'david'
    mixing_beta = 0.5
    conv_thr = 1e-12
/

CELL_PARAMETERS
20.00   0.00    0.00
0.00    20.00   0.00
0.00    0.00    20.00

ATOMIC_SPECIES
S	32.065	S.upf
O	15.9994	O.upf

ATOMIC_POSITIONS (angstrom)
S	0.0	0.0	0.0
O	1.2349	0.0	0.7226
O	-1.2349	0.0	0.7226
