&control
    calculation = 'scf'
    restart_mode = 'from_scratch'
    prefix = 'Tetracarbon'
    tprnfor = .true.
    pseudo_dir = '/home/ciga/builds/pseudo_potentials'
/

&system
    ibrav = 0
    nat = 4
    ntyp = 1
    ecutwfc = 55
/

&electrons
    diagonalization = 'david'
    mixing_beta = 0.5
    conv_thr = 1e-12
/

CELL_PARAMETERS
20.00   0.00    0.00
0.00    20.00   0.00
0.00    0.00    20.00

ATOMIC_SPECIES
C	12.0107	C.upf

ATOMIC_POSITIONS (angstrom)
C	1.2247	0.0	0.0
C	-1.2247	0.0	0.0
C	0.0	-0.7286	0.0
C	0.0	0.7286	0.0
