&control
    calculation = 'scf'
    restart_mode = 'from_scratch'
    prefix = 'Thymine'
    tprnfor = .true.
    pseudo_dir = '/home/ciga/builds/pseudo_potentials'
/

&system
    ibrav = 0
    nat = 15
    ntyp = 4
    ecutwfc = 40
/

&electrons
    diagonalization = 'david'
    mixing_beta = 0.5
    conv_thr = 1e-12
/

CELL_PARAMETERS
20.00   0.00    0.00
0.00    20.00   0.00
0.00    0.00    20.00

ATOMIC_SPECIES
C	12.0107	C.upf
H	1.00794	H.upf
O	15.9994	O.upf
N	14.0067	N.upf

ATOMIC_POSITIONS (angstrom)
C	0.5676469	7.48e-05	-1.1919386
C	1.5304659	0.0002388	-0.2353148
H	2.5926489	0.0003404	-0.4816273
C	-0.833211	9.68e-05	-0.7623841
O	-1.8038589	0.0001316	-1.5105895
N	-1.0160281	0.0001744	0.6372389
H	-1.9813565	0.0002431	0.9610129
C	-0.0490742	0.0002212	1.6309425
O	-0.2873837	-0.0005911	2.8289393
N	1.2432728	0.0002954	1.1110067
H	1.9834347	0.0004963	1.8040615
C	0.8557798	-0.000484	-2.6602502
H	1.9357502	-0.0001999	-2.8533074
H	0.4097225	0.8785617	-3.1465795
H	0.4104462	-0.8804337	-3.1455944
