&control
    calculation = 'scf'
    restart_mode = 'from_scratch'
    prefix = 'Titanium_fluoride'
    tprnfor = .true.
    pseudo_dir = '/home/ciga/builds/pseudo_potentials'
/

&system
    ibrav = 0
    nat = 5
    ntyp = 2
    ecutwfc = 65
/

&electrons
    diagonalization = 'david'
    mixing_beta = 0.5
    conv_thr = 1e-12
/

CELL_PARAMETERS
20.00   0.00    0.00
0.00    20.00   0.00
0.00    0.00    20.00

ATOMIC_SPECIES
Ti	47.867	Ti.upf
F	18.9984032	F.upf

ATOMIC_POSITIONS (angstrom)
Ti	0.0	0.0	0.0
F	1.0127	-1.0127	1.0127
F	-1.0127	1.0127	1.0127
F	-1.0127	-1.0127	-1.0127
F	1.0127	1.0127	-1.0127
