&control
    calculation = 'scf'
    restart_mode = 'from_scratch'
    prefix = 'Tuloene'
    tprnfor = .true.
    pseudo_dir = '/home/ciga/builds/pseudo_potentials'
/

&system
    ibrav = 0
    nat = 15
    ntyp = 2
    ecutwfc = 50
/

&electrons
    diagonalization = 'david'
    mixing_beta = 0.5
    conv_thr = 1e-12
/

CELL_PARAMETERS
20.00   0.00    0.00
0.00    20.00   0.00
0.00    0.00    20.00

ATOMIC_SPECIES
C	12.0107	C.upf
H	1.00794	H.upf

ATOMIC_POSITIONS (angstrom)
C	-1.0916	-0.8749	0.0
C	0.2119	-1.3828	0.0
C	1.3034	-0.5079	0.0
C	1.0916	0.8749	0.0
C	-0.2119	1.3827	0.0
C	-1.3035	0.5078	0.0
H	-1.957699	-1.569142	0.0
H	0.380087	-2.479984	0.0
H	1.957699	1.569142	0.0
H	-0.380072	2.479886	0.0
H	-2.337729	0.910876	0.0
C	2.723481	-1.061023	0.0
H	3.397184	-0.350813	0.523286
H	2.739366	-2.039786	0.523326
H	3.06824	-1.195306	-1.046523
