&control
    calculation = 'scf'
    restart_mode = 'from_scratch'
    prefix = 'Uracil'
    tprnfor = .true.
    pseudo_dir = '/home/ciga/builds/pseudo_potentials'
/

&system
    ibrav = 0
    nat = 12
    ntyp = 4
    ecutwfc = 85
/

&electrons
    diagonalization = 'david'
    mixing_beta = 0.5
    conv_thr = 1e-12
/

CELL_PARAMETERS
20.00   0.00    0.00
0.00    20.00   0.00
0.00    0.00    20.00

ATOMIC_SPECIES
H	1.00794	H.upf
C	12.0107	C.upf
O	15.9994	O.upf
N	14.0067	N.upf

ATOMIC_POSITIONS (angstrom)
H	1.7181113	-2e-07	-2.1244327
C	1.1438667	-1e-07	-1.2038069
C	1.744608	-0.0	0.0097511
H	2.8271212	-1e-07	0.129824
C	-0.3090145	0.0	-1.2970091
O	-0.9725128	-1e-07	-2.3249912
N	-0.9523747	1e-07	-0.0343227
H	-1.9701793	2e-07	-0.051116
C	-0.3751368	1e-07	1.2248796
O	-0.9991833	-1e-07	2.2733353
N	1.022398	1e-07	1.1766034
H	1.4813173	1e-07	2.0806653
