&control
    calculation = 'scf'
    restart_mode = 'from_scratch'
    prefix = 'Urea'
    tprnfor = .true.
    pseudo_dir = '/home/ciga/builds/pseudo_potentials'
/

&system
    ibrav = 0
    nat = 8
    ntyp = 4
    ecutwfc = 85
/

&electrons
    diagonalization = 'david'
    mixing_beta = 0.5
    conv_thr = 1e-12
/

CELL_PARAMETERS
20.00   0.00    0.00
0.00    20.00   0.00
0.00    0.00    20.00

ATOMIC_SPECIES
O	15.9994	O.upf
C	12.0107	C.upf
N	14.0067	N.upf
H	1.00794	H.upf

ATOMIC_POSITIONS (angstrom)
O	0.0	1.3049	0.0
C	0.0	0.0838	0.0
N	1.1603	-0.6595	0.0
N	-1.1603	-0.6595	-0.0
H	1.1383	-1.5964	0.3424
H	1.9922	-0.094	0.176
H	-1.1383	-1.5964	-0.3424
H	-1.9922	-0.094	-0.176
