&control
    calculation = 'scf'
    restart_mode = 'from_scratch'
    prefix = 'Vynil_fluoride'
    tprnfor = .true.
    pseudo_dir = '/home/ciga/builds/pseudo_potentials'
/

&system
    ibrav = 0
    nat = 6
    ntyp = 3
    ecutwfc = 80
/

&electrons
    diagonalization = 'david'
    mixing_beta = 0.5
    conv_thr = 1e-12
/

CELL_PARAMETERS
20.00   0.00    0.00
0.00    20.00   0.00
0.00    0.00    20.00

ATOMIC_SPECIES
C	12.0107	C.upf
H	1.00794	H.upf
F	18.9984032	F.upf

ATOMIC_POSITIONS (angstrom)
C	0.0	0.0	0.0
C	0.0	0.0	1.321
H	-0.942589	0.0	-0.521841
H	-0.874292	0.0	1.955045
H	0.922424	0.0	-0.561725
F	1.142469	0.0	2.026603
