&control
    calculation = 'scf'
    restart_mode = 'from_scratch'
    prefix = 'Ethybenzene'
    tprnfor = .true.
    pseudo_dir = '/home/ciga/builds/pseudo_potentials'
/

&system
    ibrav = 0
    nat = 18
    ntyp = 2
    ecutwfc = 80
    nbnd = 10
/

&electrons
    diagonalization = 'david'
    mixing_beta = 0.5
    conv_thr = 1e-12
/

CELL_PARAMETERS
20.00   0.00    0.00
0.00    20.00   0.00
0.00    0.00    20.00

ATOMIC_SPECIES
C	12.0107	C.upf
H	1.00794	H.upf

ATOMIC_POSITIONS (angstrom)
C	-2.2693535	-3.89e-05	-0.2398724
C	-1.5797056	-1.2063053	-0.1005171
C	-0.2110721	-1.203011	0.1749198
C	0.4952604	4.01e-05	0.3167968
C	-0.2111286	1.2030501	0.1748811
C	-1.5797652	1.2062634	-0.100551
H	-3.3389696	-6.9e-05	-0.4503195
H	-2.1102702	-2.1538484	-0.2012097
H	0.319563	-2.1509209	0.2885225
H	0.3194582	2.1509892	0.2884519
H	-2.1103902	2.1537683	-0.2012753
C	2.8147071	-3.76e-05	-0.7147854
C	1.982969	4.98e-05	0.5777693
H	2.5926203	-0.8860058	-1.3248301
H	2.5930639	0.8861475	-1.3246747
H	3.8904081	-0.0003286	-0.4914695
H	2.2473809	-0.882035	1.1803103
H	2.2474159	0.882178	1.1802303
