&control
    calculation = 'scf'
    restart_mode = 'from_scratch'
    prefix = 'Magnesium fluoride'
    tprnfor = .true.
    pseudo_dir = '/home/ciga/builds/pseudo_potentials'
/

&system
    ibrav = 0
    nat = 3
    ntyp = 2
    ecutwfc = 80
    nbnd = 10
/

&electrons
    diagonalization = 'david'
    mixing_beta = 0.5
    conv_thr = 1e-12
/

CELL_PARAMETERS
20.00   0.00    0.00
0.00    20.00   0.00
0.00    0.00    20.00

ATOMIC_SPECIES
F	18.9984032	F.upf
Mg	24.305	Mg.upf

ATOMIC_POSITIONS (angstrom)
F	0.0	0.0	1.771
Mg	0.0	0.0	0.0
F	0.0	0.0	-1.771
